3373.17
0 54 45 42 48 50 47 49 40 38 43 44 39 51 53 0 
0 102 110 12 4 11 10 3 9 17 5 16 2 14 0 
0 61 72 71 65 68 70 74 0 
0 75 88 86 81 91 82 87 90 0 
0 94 93 95 96 0 
0 148 141 140 147 142 84 89 92 79 78 83 77 85 76 80 137 0 
0 57 46 41 6 1 7 8 15 13 150 104 101 108 99 103 105 112 0 
0 107 100 146 143 138 139 144 149 145 0 
0 52 60 132 125 120 127 123 115 135 0 
0 63 56 136 129 130 131 133 121 126 118 134 64 0 
0 109 98 97 111 106 0 
0 20 22 35 28 26 31 32 30 23 24 36 27 0 
0 58 66 69 67 73 128 116 122 117 114 113 124 119 29 37 34 0 
0 18 21 19 33 59 0 
0 25 62 55 0 
